p cnf 164 143
-1 43 100 118 124 -22 -32 -33 -35 -39 -64 -71 -95 -98 -105 -125 -126 -127 -128 -129 -132 -134 -135 -136 -137 -138 -139 -140 -142 -143 -144 -145 -146 -147 -150 -151 -152 -153 -154 -155 -156 -157 -158 -159 -160 -161 -164 0 
-2 124 -22 -32 -33 -35 -39 -64 -71 -95 -98 -105 -125 -126 -127 -128 -129 -132 -134 -135 -136 -137 -138 -139 -140 -142 -143 -144 -145 -146 -147 -150 -151 -152 -153 -154 -155 -156 -157 -158 -159 -160 -161 -164 0 
-3 -4 50 124 -22 -32 -33 -35 -39 -64 -71 -95 -98 -105 -125 -126 -127 -128 -129 -132 -134 -135 -136 -137 -138 -139 -140 -142 -143 -144 -145 -146 -147 -150 -151 -152 -153 -154 -155 -156 -157 -158 -159 -160 -161 -164 0 
-5 52 -6 18 124 -22 -32 -33 -35 -39 -64 -71 -95 -98 -105 -125 -126 -127 -128 -129 -132 -134 -135 -136 -137 -138 -139 -140 -142 -143 -144 -145 -146 -147 -150 -151 -152 -153 -154 -155 -156 -157 -158 -159 -160 -161 -164 0 
-7 -4 50 124 -22 -32 -33 -35 -39 -64 -71 -95 -98 -105 -125 -126 -127 -128 -129 -132 -134 -135 -136 -137 -138 -139 -140 -142 -143 -144 -145 -146 -147 -150 -151 -152 -153 -154 -155 -156 -157 -158 -159 -160 -161 -164 0 
-8 -6 18 124 -22 -32 -33 -35 -39 -64 -71 -95 -98 -105 -125 -126 -127 -128 -129 -132 -134 -135 -136 -137 -138 -139 -140 -142 -143 -144 -145 -146 -147 -150 -151 -152 -153 -154 -155 -156 -157 -158 -159 -160 -161 -164 0 
-9 -10 124 -22 -32 -33 -35 -39 -64 -71 -95 -98 -105 -125 -126 -127 -128 -129 -132 -134 -135 -136 -137 -138 -139 -140 -142 -143 -144 -145 -146 -147 -150 -151 -152 -153 -154 -155 -156 -157 -158 -159 -160 -161 -164 0 
-11 125 -126 -127 -128 -129 -132 -134 -135 -136 -137 -138 -139 -140 -142 -143 -144 -145 -146 -147 -150 -151 -152 -153 -154 -155 -156 -157 -158 -159 -160 -161 -164 0 
-12 56 116 124 -22 -32 -33 -35 -39 -64 -71 -95 -98 -105 -125 -126 -127 -128 -129 -132 -134 -135 -136 -137 -138 -139 -140 -142 -143 -144 -145 -146 -147 -150 -151 -152 -153 -154 -155 -156 -157 -158 -159 -160 -161 -164 0 
-13 -9 -2 -14 -15 124 -22 -32 -33 -35 -39 -64 -71 -95 -98 -105 -125 -126 -127 -128 -129 -132 -134 -135 -136 -137 -138 -139 -140 -142 -143 -144 -145 -146 -147 -150 -151 -152 -153 -154 -155 -156 -157 -158 -159 -160 -161 -164 0 
-16 93 -17 126 -125 -127 -128 -129 -132 -134 -135 -136 -137 -138 -139 -140 -142 -143 -144 -145 -146 -147 -150 -151 -152 -153 -154 -155 -156 -157 -158 -159 -160 -161 -164 0 
-2 -8 124 -22 -32 -33 -35 -39 -64 -71 -95 -98 -105 -125 -126 -127 -128 -129 -132 -134 -135 -136 -137 -138 -139 -140 -142 -143 -144 -145 -146 -147 -150 -151 -152 -153 -154 -155 -156 -157 -158 -159 -160 -161 -164 0 
-10 124 -22 -32 -33 -35 -39 -64 -71 -95 -98 -105 -125 -126 -127 -128 -129 -132 -134 -135 -136 -137 -138 -139 -140 -142 -143 -144 -145 -146 -147 -150 -151 -152 -153 -154 -155 -156 -157 -158 -159 -160 -161 -164 0 
-18 6 127 -125 -126 -128 -129 -132 -134 -135 -136 -137 -138 -139 -140 -142 -143 -144 -145 -146 -147 -150 -151 -152 -153 -154 -155 -156 -157 -158 -159 -160 -161 -164 0 
-19 124 -22 -32 -33 -35 -39 -64 -71 -95 -98 -105 -125 -126 -127 -128 -129 -132 -134 -135 -136 -137 -138 -139 -140 -142 -143 -144 -145 -146 -147 -150 -151 -152 -153 -154 -155 -156 -157 -158 -159 -160 -161 -164 0 
-20 30 -21 108 124 -22 -32 -33 -35 -39 -64 -71 -95 -98 -105 -125 -126 -127 -128 -129 -132 -134 -135 -136 -137 -138 -139 -140 -142 -143 -144 -145 -146 -147 -150 -151 -152 -153 -154 -155 -156 -157 -158 -159 -160 -161 -164 0 
-11 -15 124 -22 -32 -33 -35 -39 -64 -71 -95 -98 -105 -125 -126 -127 -128 -129 -132 -134 -135 -136 -137 -138 -139 -140 -142 -143 -144 -145 -146 -147 -150 -151 -152 -153 -154 -155 -156 -157 -158 -159 -160 -161 -164 0 
-22 32 33 35 39 64 71 95 98 105 128 -125 -126 -127 -129 -132 -134 -135 -136 -137 -138 -139 -140 -142 -143 -144 -145 -146 -147 -150 -151 -152 -153 -154 -155 -156 -157 -158 -159 -160 -161 -164 0 
-2 -15 124 -22 -32 -33 -35 -39 -64 -71 -95 -98 -105 -125 -126 -127 -128 -129 -132 -134 -135 -136 -137 -138 -139 -140 -142 -143 -144 -145 -146 -147 -150 -151 -152 -153 -154 -155 -156 -157 -158 -159 -160 -161 -164 0 
-23 51 129 -125 -126 -127 -128 -132 -134 -135 -136 -137 -138 -139 -140 -142 -143 -144 -145 -146 -147 -150 -151 -152 -153 -154 -155 -156 -157 -158 -159 -160 -161 -164 0 
-8 124 -22 -32 -33 -35 -39 -64 -71 -95 -98 -105 -125 -126 -127 -128 -129 -132 -134 -135 -136 -137 -138 -139 -140 -142 -143 -144 -145 -146 -147 -150 -151 -152 -153 -154 -155 -156 -157 -158 -159 -160 -161 -164 0 
-24 28 57 124 -22 -32 -33 -35 -39 -64 -71 -95 -98 -105 -125 -126 -127 -128 -129 -132 -134 -135 -136 -137 -138 -139 -140 -142 -143 -144 -145 -146 -147 -150 -151 -152 -153 -154 -155 -156 -157 -158 -159 -160 -161 -164 0 
-25 124 -22 -32 -33 -35 -39 -64 -71 -95 -98 -105 -125 -126 -127 -128 -129 -132 -134 -135 -136 -137 -138 -139 -140 -142 -143 -144 -145 -146 -147 -150 -151 -152 -153 -154 -155 -156 -157 -158 -159 -160 -161 -164 0 
-23 51 130 0 
-23 51 131 0 
-26 -27 -24 28 57 132 -125 -126 -127 -128 -129 -134 -135 -136 -137 -138 -139 -140 -142 -143 -144 -145 -146 -147 -150 -151 -152 -153 -154 -155 -156 -157 -158 -159 -160 -161 -164 0 
-28 24 57 133 -141 -148 -149 -162 0 
-29 -24 28 57 124 -22 -32 -33 -35 -39 -64 -71 -95 -98 -105 -125 -126 -127 -128 -129 -132 -134 -135 -136 -137 -138 -139 -140 -142 -143 -144 -145 -146 -147 -150 -151 -152 -153 -154 -155 -156 -157 -158 -159 -160 -161 -164 0 
-30 20 -31 131 0 
-32 22 33 35 39 64 71 95 98 105 134 -125 -126 -127 -128 -129 -132 -135 -136 -137 -138 -139 -140 -142 -143 -144 -145 -146 -147 -150 -151 -152 -153 -154 -155 -156 -157 -158 -159 -160 -161 -164 0 
-33 22 32 35 39 64 71 95 98 105 129 -125 -126 -127 -128 -132 -134 -135 -136 -137 -138 -139 -140 -142 -143 -144 -145 -146 -147 -150 -151 -152 -153 -154 -155 -156 -157 -158 -159 -160 -161 -164 0 
-34 124 -22 -32 -33 -35 -39 -64 -71 -95 -98 -105 -125 -126 -127 -128 -129 -132 -134 -135 -136 -137 -138 -139 -140 -142 -143 -144 -145 -146 -147 -150 -151 -152 -153 -154 -155 -156 -157 -158 -159 -160 -161 -164 0 
-30 20 131 0 
-35 22 32 33 39 64 71 95 98 105 135 -125 -126 -127 -128 -129 -132 -134 -136 -137 -138 -139 -140 -142 -143 -144 -145 -146 -147 -150 -151 -152 -153 -154 -155 -156 -157 -158 -159 -160 -161 -164 0 
-36 78 82 136 -125 -126 -127 -128 -129 -132 -134 -135 -137 -138 -139 -140 -142 -143 -144 -145 -146 -147 -150 -151 -152 -153 -154 -155 -156 -157 -158 -159 -160 -161 -164 0 
-37 48 63 74 75 80 97 131 0 
-15 -38 94 124 -22 -32 -33 -35 -39 -64 -71 -95 -98 -105 -125 -126 -127 -128 -129 -132 -134 -135 -136 -137 -138 -139 -140 -142 -143 -144 -145 -146 -147 -150 -151 -152 -153 -154 -155 -156 -157 -158 -159 -160 -161 -164 0 
-39 22 32 33 35 64 71 95 98 105 137 -125 -126 -127 -128 -129 -132 -134 -135 -136 -138 -139 -140 -142 -143 -144 -145 -146 -147 -150 -151 -152 -153 -154 -155 -156 -157 -158 -159 -160 -161 -164 0 
-40 129 -125 -126 -127 -128 -132 -134 -135 -136 -137 -138 -139 -140 -142 -143 -144 -145 -146 -147 -150 -151 -152 -153 -154 -155 -156 -157 -158 -159 -160 -161 -164 0 
-38 94 129 -125 -126 -127 -128 -132 -134 -135 -136 -137 -138 -139 -140 -142 -143 -144 -145 -146 -147 -150 -151 -152 -153 -154 -155 -156 -157 -158 -159 -160 -161 -164 0 
-41 -42 69 138 -125 -126 -127 -128 -129 -132 -134 -135 -136 -137 -139 -140 -142 -143 -144 -145 -146 -147 -150 -151 -152 -153 -154 -155 -156 -157 -158 -159 -160 -161 -164 0 
-43 1 100 118 139 -125 -126 -127 -128 -129 -132 -134 -135 -136 -137 -138 -140 -142 -143 -144 -145 -146 -147 -150 -151 -152 -153 -154 -155 -156 -157 -158 -159 -160 -161 -164 0 
-38 94 -44 131 0 
-23 51 -45 130 0 
-46 131 0 
-24 28 57 -38 94 -47 119 140 -125 -126 -127 -128 -129 -132 -134 -135 -136 -137 -138 -139 -142 -143 -144 -145 -146 -147 -150 -151 -152 -153 -154 -155 -156 -157 -158 -159 -160 -161 -164 0 
-48 37 63 74 75 80 97 -49 62 85 90 103 -50 4 -51 23 137 -125 -126 -127 -128 -129 -132 -134 -135 -136 -138 -139 -140 -142 -143 -144 -145 -146 -147 -150 -151 -152 -153 -154 -155 -156 -157 -158 -159 -160 -161 -164 0 
-52 5 124 -22 -32 -33 -35 -39 -64 -71 -95 -98 -105 -125 -126 -127 -128 -129 -132 -134 -135 -136 -137 -138 -139 -140 -142 -143 -144 -145 -146 -147 -150 -151 -152 -153 -154 -155 -156 -157 -158 -159 -160 -161 -164 0 
-43 1 100 118 -24 28 57 139 -125 -126 -127 -128 -129 -132 -134 -135 -136 -137 -138 -140 -142 -143 -144 -145 -146 -147 -150 -151 -152 -153 -154 -155 -156 -157 -158 -159 -160 -161 -164 0 
-53 127 -125 -126 -128 -129 -132 -134 -135 -136 -137 -138 -139 -140 -142 -143 -144 -145 -146 -147 -150 -151 -152 -153 -154 -155 -156 -157 -158 -159 -160 -161 -164 0 
-54 -15 -55 104 109 115 -1 43 100 118 124 -22 -32 -33 -35 -39 -64 -71 -95 -98 -105 -125 -126 -127 -128 -129 -132 -134 -135 -136 -137 -138 -139 -140 -142 -143 -144 -145 -146 -147 -150 -151 -152 -153 -154 -155 -156 -157 -158 -159 -160 -161 -164 0 
-14 -15 -7 124 -22 -32 -33 -35 -39 -64 -71 -95 -98 -105 -125 -126 -127 -128 -129 -132 -134 -135 -136 -137 -138 -139 -140 -142 -143 -144 -145 -146 -147 -150 -151 -152 -153 -154 -155 -156 -157 -158 -159 -160 -161 -164 0 
-3 -56 12 116 127 -125 -126 -128 -129 -132 -134 -135 -136 -137 -138 -139 -140 -142 -143 -144 -145 -146 -147 -150 -151 -152 -153 -154 -155 -156 -157 -158 -159 -160 -161 -164 0 
-8 -57 24 28 124 -22 -32 -33 -35 -39 -64 -71 -95 -98 -105 -125 -126 -127 -128 -129 -132 -134 -135 -136 -137 -138 -139 -140 -142 -143 -144 -145 -146 -147 -150 -151 -152 -153 -154 -155 -156 -157 -158 -159 -160 -161 -164 0 
-28 24 57 141 -133 -148 -149 -162 0 
-58 96 139 -125 -126 -127 -128 -129 -132 -134 -135 -136 -137 -138 -140 -142 -143 -144 -145 -146 -147 -150 -151 -152 -153 -154 -155 -156 -157 -158 -159 -160 -161 -164 0 
-59 106 124 -22 -32 -33 -35 -39 -64 -71 -95 -98 -105 -125 -126 -127 -128 -129 -132 -134 -135 -136 -137 -138 -139 -140 -142 -143 -144 -145 -146 -147 -150 -151 -152 -153 -154 -155 -156 -157 -158 -159 -160 -161 -164 0 
-15 124 -22 -32 -33 -35 -39 -64 -71 -95 -98 -105 -125 -126 -127 -128 -129 -132 -134 -135 -136 -137 -138 -139 -140 -142 -143 -144 -145 -146 -147 -150 -151 -152 -153 -154 -155 -156 -157 -158 -159 -160 -161 -164 0 
-60 86 101 142 -125 -126 -127 -128 -129 -132 -134 -135 -136 -137 -138 -139 -140 -143 -144 -145 -146 -147 -150 -151 -152 -153 -154 -155 -156 -157 -158 -159 -160 -161 -164 0 
-30 20 129 -125 -126 -127 -128 -132 -134 -135 -136 -137 -138 -139 -140 -142 -143 -144 -145 -146 -147 -150 -151 -152 -153 -154 -155 -156 -157 -158 -159 -160 -161 -164 0 
-61 79 88 143 -125 -126 -127 -128 -129 -132 -134 -135 -136 -137 -138 -139 -140 -142 -144 -145 -146 -147 -150 -151 -152 -153 -154 -155 -156 -157 -158 -159 -160 -161 -164 0 
-62 49 85 90 103 129 -125 -126 -127 -128 -132 -134 -135 -136 -137 -138 -139 -140 -142 -143 -144 -145 -146 -147 -150 -151 -152 -153 -154 -155 -156 -157 -158 -159 -160 -161 -164 0 
-14 124 -22 -32 -33 -35 -39 -64 -71 -95 -98 -105 -125 -126 -127 -128 -129 -132 -134 -135 -136 -137 -138 -139 -140 -142 -143 -144 -145 -146 -147 -150 -151 -152 -153 -154 -155 -156 -157 -158 -159 -160 -161 -164 0 
-63 37 48 74 75 80 97 144 -125 -126 -127 -128 -129 -132 -134 -135 -136 -137 -138 -139 -140 -142 -143 -145 -146 -147 -150 -151 -152 -153 -154 -155 -156 -157 -158 -159 -160 -161 -164 0 
-64 22 32 33 35 39 71 95 98 105 145 -125 -126 -127 -128 -129 -132 -134 -135 -136 -137 -138 -139 -140 -142 -143 -144 -146 -147 -150 -151 -152 -153 -154 -155 -156 -157 -158 -159 -160 -161 -164 0 
-65 83 87 146 -125 -126 -127 -128 -129 -132 -134 -135 -136 -137 -138 -139 -140 -142 -143 -144 -145 -147 -150 -151 -152 -153 -154 -155 -156 -157 -158 -159 -160 -161 -164 0 
-66 72 77 89 99 147 -125 -126 -127 -128 -129 -132 -134 -135 -136 -137 -138 -139 -140 -142 -143 -144 -145 -146 -150 -151 -152 -153 -154 -155 -156 -157 -158 -159 -160 -161 -164 0 
-24 28 57 148 -133 -141 -149 -162 0 
-57 24 28 149 -133 -141 -148 -162 0 
-67 -24 28 57 129 -125 -126 -127 -128 -132 -134 -135 -136 -137 -138 -139 -140 -142 -143 -144 -145 -146 -147 -150 -151 -152 -153 -154 -155 -156 -157 -158 -159 -160 -161 -164 0 
-24 28 57 -68 124 -22 -32 -33 -35 -39 -64 -71 -95 -98 -105 -125 -126 -127 -128 -129 -132 -134 -135 -136 -137 -138 -139 -140 -142 -143 -144 -145 -146 -147 -150 -151 -152 -153 -154 -155 -156 -157 -158 -159 -160 -161 -164 0 
-24 28 57 -68 150 -125 -126 -127 -128 -129 -132 -134 -135 -136 -137 -138 -139 -140 -142 -143 -144 -145 -146 -147 -151 -152 -153 -154 -155 -156 -157 -158 -159 -160 -161 -164 0 
-24 28 57 -38 94 124 -22 -32 -33 -35 -39 -64 -71 -95 -98 -105 -125 -126 -127 -128 -129 -132 -134 -135 -136 -137 -138 -139 -140 -142 -143 -144 -145 -146 -147 -150 -151 -152 -153 -154 -155 -156 -157 -158 -159 -160 -161 -164 0 
-23 51 -30 20 131 0 
-24 28 57 -27 150 -125 -126 -127 -128 -129 -132 -134 -135 -136 -137 -138 -139 -140 -142 -143 -144 -145 -146 -147 -151 -152 -153 -154 -155 -156 -157 -158 -159 -160 -161 -164 0 
-69 42 -70 -26 135 -125 -126 -127 -128 -129 -132 -134 -136 -137 -138 -139 -140 -142 -143 -144 -145 -146 -147 -150 -151 -152 -153 -154 -155 -156 -157 -158 -159 -160 -161 -164 0 
-24 28 57 131 0 
-71 22 32 33 35 39 64 95 98 105 151 -125 -126 -127 -128 -129 -132 -134 -135 -136 -137 -138 -139 -140 -142 -143 -144 -145 -146 -147 -150 -152 -153 -154 -155 -156 -157 -158 -159 -160 -161 -164 0 
-11 124 -22 -32 -33 -35 -39 -64 -71 -95 -98 -105 -125 -126 -127 -128 -129 -132 -134 -135 -136 -137 -138 -139 -140 -142 -143 -144 -145 -146 -147 -150 -151 -152 -153 -154 -155 -156 -157 -158 -159 -160 -161 -164 0 
-72 66 77 89 99 130 0 
-48 37 63 74 75 80 97 137 -125 -126 -127 -128 -129 -132 -134 -135 -136 -138 -139 -140 -142 -143 -144 -145 -146 -147 -150 -151 -152 -153 -154 -155 -156 -157 -158 -159 -160 -161 -164 0 
-2 -8 -7 124 -22 -32 -33 -35 -39 -64 -71 -95 -98 -105 -125 -126 -127 -128 -129 -132 -134 -135 -136 -137 -138 -139 -140 -142 -143 -144 -145 -146 -147 -150 -151 -152 -153 -154 -155 -156 -157 -158 -159 -160 -161 -164 0 
-59 106 -8 -4 50 124 -22 -32 -33 -35 -39 -64 -71 -95 -98 -105 -125 -126 -127 -128 -129 -132 -134 -135 -136 -137 -138 -139 -140 -142 -143 -144 -145 -146 -147 -150 -151 -152 -153 -154 -155 -156 -157 -158 -159 -160 -161 -164 0 
-24 28 57 152 -125 -126 -127 -128 -129 -132 -134 -135 -136 -137 -138 -139 -140 -142 -143 -144 -145 -146 -147 -150 -151 -153 -154 -155 -156 -157 -158 -159 -160 -161 -164 0 
-73 92 124 -22 -32 -33 -35 -39 -64 -71 -95 -98 -105 -125 -126 -127 -128 -129 -132 -134 -135 -136 -137 -138 -139 -140 -142 -143 -144 -145 -146 -147 -150 -151 -152 -153 -154 -155 -156 -157 -158 -159 -160 -161 -164 0 
-74 37 48 63 75 80 97 153 -125 -126 -127 -128 -129 -132 -134 -135 -136 -137 -138 -139 -140 -142 -143 -144 -145 -146 -147 -150 -151 -152 -154 -155 -156 -157 -158 -159 -160 -161 -164 0 
-75 37 48 63 74 80 97 154 -125 -126 -127 -128 -129 -132 -134 -135 -136 -137 -138 -139 -140 -142 -143 -144 -145 -146 -147 -150 -151 -152 -153 -155 -156 -157 -158 -159 -160 -161 -164 0 
-76 131 0 
-76 130 0 
-69 42 135 -125 -126 -127 -128 -129 -132 -134 -136 -137 -138 -139 -140 -142 -143 -144 -145 -146 -147 -150 -151 -152 -153 -154 -155 -156 -157 -158 -159 -160 -161 -164 0 
-77 66 72 89 99 137 -125 -126 -127 -128 -129 -132 -134 -135 -136 -138 -139 -140 -142 -143 -144 -145 -146 -147 -150 -151 -152 -153 -154 -155 -156 -157 -158 -159 -160 -161 -164 0 
-78 36 82 155 -125 -126 -127 -128 -129 -132 -134 -135 -136 -137 -138 -139 -140 -142 -143 -144 -145 -146 -147 -150 -151 -152 -153 -154 -156 -157 -158 -159 -160 -161 -164 0 
-79 61 88 124 -22 -32 -33 -35 -39 -64 -71 -95 -98 -105 -125 -126 -127 -128 -129 -132 -134 -135 -136 -137 -138 -139 -140 -142 -143 -144 -145 -146 -147 -150 -151 -152 -153 -154 -155 -156 -157 -158 -159 -160 -161 -164 0 
-80 37 48 63 74 75 97 147 -125 -126 -127 -128 -129 -132 -134 -135 -136 -137 -138 -139 -140 -142 -143 -144 -145 -146 -150 -151 -152 -153 -154 -155 -156 -157 -158 -159 -160 -161 -164 0 
-81 150 -125 -126 -127 -128 -129 -132 -134 -135 -136 -137 -138 -139 -140 -142 -143 -144 -145 -146 -147 -151 -152 -153 -154 -155 -156 -157 -158 -159 -160 -161 -164 0 
-82 36 78 -24 28 57 151 -125 -126 -127 -128 -129 -132 -134 -135 -136 -137 -138 -139 -140 -142 -143 -144 -145 -146 -147 -150 -152 -153 -154 -155 -156 -157 -158 -159 -160 -161 -164 0 
-83 65 87 124 -22 -32 -33 -35 -39 -64 -71 -95 -98 -105 -125 -126 -127 -128 -129 -132 -134 -135 -136 -137 -138 -139 -140 -142 -143 -144 -145 -146 -147 -150 -151 -152 -153 -154 -155 -156 -157 -158 -159 -160 -161 -164 0 
-30 20 -38 94 -57 24 28 131 0 
-84 -85 49 62 90 103 156 -125 -126 -127 -128 -129 -132 -134 -135 -136 -137 -138 -139 -140 -142 -143 -144 -145 -146 -147 -150 -151 -152 -153 -154 -155 -157 -158 -159 -160 -161 -164 0 
-86 60 101 -87 65 83 -50 4 -88 61 79 157 -125 -126 -127 -128 -129 -132 -134 -135 -136 -137 -138 -139 -140 -142 -143 -144 -145 -146 -147 -150 -151 -152 -153 -154 -155 -156 -158 -159 -160 -161 -164 0 
-89 66 72 77 99 -3 -7 -90 49 62 85 103 -87 65 83 157 -125 -126 -127 -128 -129 -132 -134 -135 -136 -137 -138 -139 -140 -142 -143 -144 -145 -146 -147 -150 -151 -152 -153 -154 -155 -156 -158 -159 -160 -161 -164 0 
-91 123 137 -125 -126 -127 -128 -129 -132 -134 -135 -136 -138 -139 -140 -142 -143 -144 -145 -146 -147 -150 -151 -152 -153 -154 -155 -156 -157 -158 -159 -160 -161 -164 0 
-89 66 72 77 99 -92 73 -20 30 -93 16 -90 49 62 85 103 157 -125 -126 -127 -128 -129 -132 -134 -135 -136 -137 -138 -139 -140 -142 -143 -144 -145 -146 -147 -150 -151 -152 -153 -154 -155 -156 -158 -159 -160 -161 -164 0 
-94 38 131 0 
-95 22 32 33 35 39 64 71 98 105 158 -125 -126 -127 -128 -129 -132 -134 -135 -136 -137 -138 -139 -140 -142 -143 -144 -145 -146 -147 -150 -151 -152 -153 -154 -155 -156 -157 -159 -160 -161 -164 0 
-96 58 143 -125 -126 -127 -128 -129 -132 -134 -135 -136 -137 -138 -139 -140 -142 -144 -145 -146 -147 -150 -151 -152 -153 -154 -155 -156 -157 -158 -159 -160 -161 -164 0 
-37 48 63 74 75 80 97 130 0 
-97 37 48 63 74 75 80 135 -125 -126 -127 -128 -129 -132 -134 -136 -137 -138 -139 -140 -142 -143 -144 -145 -146 -147 -150 -151 -152 -153 -154 -155 -156 -157 -158 -159 -160 -161 -164 0 
-98 22 32 33 35 39 64 71 95 105 159 -125 -126 -127 -128 -129 -132 -134 -135 -136 -137 -138 -139 -140 -142 -143 -144 -145 -146 -147 -150 -151 -152 -153 -154 -155 -156 -157 -158 -160 -161 -164 0 
-99 66 72 77 89 130 0 
-33 22 32 35 39 64 71 95 98 105 131 0 
-100 1 43 118 143 -125 -126 -127 -128 -129 -132 -134 -135 -136 -137 -138 -139 -140 -142 -144 -145 -146 -147 -150 -151 -152 -153 -154 -155 -156 -157 -158 -159 -160 -161 -164 0 
-62 49 85 90 103 130 0 
-101 60 86 145 -125 -126 -127 -128 -129 -132 -134 -135 -136 -137 -138 -139 -140 -142 -143 -144 -146 -147 -150 -151 -152 -153 -154 -155 -156 -157 -158 -159 -160 -161 -164 0 
-102 124 -22 -32 -33 -35 -39 -64 -71 -95 -98 -105 -125 -126 -127 -128 -129 -132 -134 -135 -136 -137 -138 -139 -140 -142 -143 -144 -145 -146 -147 -150 -151 -152 -153 -154 -155 -156 -157 -158 -159 -160 -161 -164 0 
-103 49 62 85 90 143 -125 -126 -127 -128 -129 -132 -134 -135 -136 -137 -138 -139 -140 -142 -144 -145 -146 -147 -150 -151 -152 -153 -154 -155 -156 -157 -158 -159 -160 -161 -164 0 
-104 55 109 115 131 0 
-105 22 32 33 35 39 64 71 95 98 154 -125 -126 -127 -128 -129 -132 -134 -135 -136 -137 -138 -139 -140 -142 -143 -144 -145 -146 -147 -150 -151 -152 -153 -155 -156 -157 -158 -159 -160 -161 -164 0 
-106 59 129 -125 -126 -127 -128 -132 -134 -135 -136 -137 -138 -139 -140 -142 -143 -144 -145 -146 -147 -150 -151 -152 -153 -154 -155 -156 -157 -158 -159 -160 -161 -164 0 
-30 20 -38 94 131 0 
-24 28 57 160 -125 -126 -127 -128 -129 -132 -134 -135 -136 -137 -138 -139 -140 -142 -143 -144 -145 -146 -147 -150 -151 -152 -153 -154 -155 -156 -157 -158 -159 -161 -164 0 
-8 -2 -3 -14 124 -22 -32 -33 -35 -39 -64 -71 -95 -98 -105 -125 -126 -127 -128 -129 -132 -134 -135 -136 -137 -138 -139 -140 -142 -143 -144 -145 -146 -147 -150 -151 -152 -153 -154 -155 -156 -157 -158 -159 -160 -161 -164 0 
-24 28 57 161 -125 -126 -127 -128 -129 -132 -134 -135 -136 -137 -138 -139 -140 -142 -143 -144 -145 -146 -147 -150 -151 -152 -153 -154 -155 -156 -157 -158 -159 -160 -164 0 
-107 -30 20 131 0 
-108 21 124 -22 -32 -33 -35 -39 -64 -71 -95 -98 -105 -125 -126 -127 -128 -129 -132 -134 -135 -136 -137 -138 -139 -140 -142 -143 -144 -145 -146 -147 -150 -151 -152 -153 -154 -155 -156 -157 -158 -159 -160 -161 -164 0 
-109 55 104 115 -24 28 57 -110 120 162 -133 -141 -148 -149 0 
-111 163 -125 -126 -127 -128 -129 -132 -134 -135 -136 -137 -138 -139 -140 -142 -143 -144 -145 -146 -147 -150 -151 -152 -153 -154 -155 -156 -157 -158 -159 -160 -161 -164 0 
-112 131 0 
-113 163 -125 -126 -127 -128 -129 -132 -134 -135 -136 -137 -138 -139 -140 -142 -143 -144 -145 -146 -147 -150 -151 -152 -153 -154 -155 -156 -157 -158 -159 -160 -161 -164 0 
-106 59 -114 137 -125 -126 -127 -128 -129 -132 -134 -135 -136 -138 -139 -140 -142 -143 -144 -145 -146 -147 -150 -151 -152 -153 -154 -155 -156 -157 -158 -159 -160 -161 -164 0 
-49 62 85 90 103 137 -125 -126 -127 -128 -129 -132 -134 -135 -136 -138 -139 -140 -142 -143 -144 -145 -146 -147 -150 -151 -152 -153 -154 -155 -156 -157 -158 -159 -160 -161 -164 0 
-115 55 104 109 139 -125 -126 -127 -128 -129 -132 -134 -135 -136 -137 -138 -140 -142 -143 -144 -145 -146 -147 -150 -151 -152 -153 -154 -155 -156 -157 -158 -159 -160 -161 -164 0 
-116 12 56 131 0 
-117 -118 1 43 100 137 -125 -126 -127 -128 -129 -132 -134 -135 -136 -138 -139 -140 -142 -143 -144 -145 -146 -147 -150 -151 -152 -153 -154 -155 -156 -157 -158 -159 -160 -161 -164 0 
-20 30 -56 12 116 -83 65 87 124 -22 -32 -33 -35 -39 -64 -71 -95 -98 -105 -125 -126 -127 -128 -129 -132 -134 -135 -136 -137 -138 -139 -140 -142 -143 -144 -145 -146 -147 -150 -151 -152 -153 -154 -155 -156 -157 -158 -159 -160 -161 -164 0 
-56 12 116 -11 124 -22 -32 -33 -35 -39 -64 -71 -95 -98 -105 -125 -126 -127 -128 -129 -132 -134 -135 -136 -137 -138 -139 -140 -142 -143 -144 -145 -146 -147 -150 -151 -152 -153 -154 -155 -156 -157 -158 -159 -160 -161 -164 0 
-24 28 57 -119 47 -120 110 -121 -68 131 0 
-28 24 57 124 -22 -32 -33 -35 -39 -64 -71 -95 -98 -105 -125 -126 -127 -128 -129 -132 -134 -135 -136 -137 -138 -139 -140 -142 -143 -144 -145 -146 -147 -150 -151 -152 -153 -154 -155 -156 -157 -158 -159 -160 -161 -164 0 
-14 -113 124 -22 -32 -33 -35 -39 -64 -71 -95 -98 -105 -125 -126 -127 -128 -129 -132 -134 -135 -136 -137 -138 -139 -140 -142 -143 -144 -145 -146 -147 -150 -151 -152 -153 -154 -155 -156 -157 -158 -159 -160 -161 -164 0 
-46 -30 20 131 0 
-122 -20 30 131 0 
-123 91 164 -125 -126 -127 -128 -129 -132 -134 -135 -136 -137 -138 -139 -140 -142 -143 -144 -145 -146 -147 -150 -151 -152 -153 -154 -155 -156 -157 -158 -159 -160 -161 0 
-8 -2 124 -22 -32 -33 -35 -39 -64 -71 -95 -98 -105 -125 -126 -127 -128 -129 -132 -134 -135 -136 -137 -138 -139 -140 -142 -143 -144 -145 -146 -147 -150 -151 -152 -153 -154 -155 -156 -157 -158 -159 -160 -161 -164 0 
